NAME : eil101.opt.tour
COMMENT : Optimal tour for eil101.tsp  (821.0325)
TYPE : TOUR
DIMENSION : 101
TOUR_SECTION
18
52
60
5
96
59
89
6
13
58
53
101
27
28
40
26
77
76
69
1
50
51
71
65
35
9
81
33
34
78
79
3
29
24
68
25
55
54
80
12
21
73
72
74
75
56
4
67
39
23
22
41
57
15
43
97
87
42
2
94
95
92
37
100
98
91
14
38
44
86
16
61
85
93
99
84
17
83
45
8
46
47
36
49
64
48
88
62
19
11
10
90
63
32
66
20
30
70
31
7
82
-1
EOF